
Gurobi 10.0.1 (linux64) logging started Sun Nov 26 15:45:24 2023

Set parameter LogFile to value "ArtificialInstance/ExperimentV2/S2T4K2/AdRo/gurobiDoRo50.txt"
Gurobi Optimizer version 10.0.1 build v10.0.1rc0 (linux64)

CPU model: AMD EPYC 7H12 64-Core Processor, instruction set [SSE2|AVX|AVX2]
Thread count: 128 physical cores, 128 logical processors, using up to 32 threads

Academic license 656792 - for non-commercial use only - registered to b.___@student.vu.nl
Optimize a model with 6812 rows, 6490 columns and 25149 nonzeros
Model fingerprint: 0xa1490d18
Variable types: 1 continuous, 6489 integer (6489 binary)
Coefficient statistics:
  Matrix range     [1e+00, 4e+01]
  Objective range  [1e+00, 2e+01]
  Bounds range     [1e+00, 1e+00]
  RHS range        [1e+00, 1e+00]
Presolve removed 3128 rows and 2907 columns
Presolve time: 0.08s
Presolved: 3684 rows, 3583 columns, 13915 nonzeros
Variable types: 1 continuous, 3582 integer (3582 binary)
Found heuristic solution: objective 359.5695674

Root relaxation: objective 7.865658e+01, 1134 iterations, 0.03 seconds (0.02 work units)

    Nodes    |    Current Node    |     Objective Bounds      |     Work
 Expl Unexpl |  Obj  Depth IntInf | Incumbent    BestBd   Gap | It/Node Time

H    0     0                      78.6565829   56.39502  28.3%     -    0s
     0     0          -    0        78.65658   78.65658  0.00%     -    0s

Explored 1 nodes (1653 simplex iterations) in 0.17 seconds (0.10 work units)
Thread count was 32 (of 128 available processors)

Solution count 2: 78.6566 359.57 

Optimal solution found (tolerance 1.00e-04)
Best objective 7.865658289966e+01, best bound 7.865658289966e+01, gap 0.0000%
